p wcnf 36 478 11
1 1 5 9 13 17 21 25 29 33 0
2 2 6 10 14 18 22 26 30 34 0
3 3 7 11 15 19 23 27 31 35 0
4 4 8 12 16 20 24 28 32 36 0
11 -1 -6 0
11 -1 -7 0
11 -1 -8 0
11 -2 -5 0
11 -2 -7 0
11 -2 -8 0
11 -3 -5 0
11 -3 -6 0
11 -3 -8 0
11 -4 -5 0
11 -4 -6 0
11 -4 -7 0
11 -1 -14 0
11 -1 -15 0
11 -1 -16 0
11 -2 -13 0
11 -2 -15 0
11 -2 -16 0
11 -3 -13 0
11 -3 -14 0
11 -3 -16 0
11 -4 -13 0
11 -4 -14 0
11 -4 -15 0
11 -1 -18 0
11 -1 -19 0
11 -1 -20 0
11 -2 -17 0
11 -2 -19 0
11 -2 -20 0
11 -3 -17 0
11 -3 -18 0
11 -3 -20 0
11 -4 -17 0
11 -4 -18 0
11 -4 -19 0
11 -1 -22 0
11 -1 -23 0
11 -1 -24 0
11 -2 -21 0
11 -2 -23 0
11 -2 -24 0
11 -3 -21 0
11 -3 -22 0
11 -3 -24 0
11 -4 -21 0
11 -4 -22 0
11 -4 -23 0
11 -1 -26 0
11 -1 -27 0
11 -1 -28 0
11 -2 -25 0
11 -2 -27 0
11 -2 -28 0
11 -3 -25 0
11 -3 -26 0
11 -3 -28 0
11 -4 -25 0
11 -4 -26 0
11 -4 -27 0
11 -1 -34 0
11 -1 -35 0
11 -1 -36 0
11 -2 -33 0
11 -2 -35 0
11 -2 -36 0
11 -3 -33 0
11 -3 -34 0
11 -3 -36 0
11 -4 -33 0
11 -4 -34 0
11 -4 -35 0
11 -5 -14 0
11 -5 -15 0
11 -5 -16 0
11 -6 -13 0
11 -6 -15 0
11 -6 -16 0
11 -7 -13 0
11 -7 -14 0
11 -7 -16 0
11 -8 -13 0
11 -8 -14 0
11 -8 -15 0
11 -5 -18 0
11 -5 -19 0
11 -5 -20 0
11 -6 -17 0
11 -6 -19 0
11 -6 -20 0
11 -7 -17 0
11 -7 -18 0
11 -7 -20 0
11 -8 -17 0
11 -8 -18 0
11 -8 -19 0
11 -5 -22 0
11 -5 -23 0
11 -5 -24 0
11 -6 -21 0
11 -6 -23 0
11 -6 -24 0
11 -7 -21 0
11 -7 -22 0
11 -7 -24 0
11 -8 -21 0
11 -8 -22 0
11 -8 -23 0
11 -5 -26 0
11 -5 -27 0
11 -5 -28 0
11 -6 -25 0
11 -6 -27 0
11 -6 -28 0
11 -7 -25 0
11 -7 -26 0
11 -7 -28 0
11 -8 -25 0
11 -8 -26 0
11 -8 -27 0
11 -5 -30 0
11 -5 -31 0
11 -5 -32 0
11 -6 -29 0
11 -6 -31 0
11 -6 -32 0
11 -7 -29 0
11 -7 -30 0
11 -7 -32 0
11 -8 -29 0
11 -8 -30 0
11 -8 -31 0
11 -9 -14 0
11 -9 -15 0
11 -9 -16 0
11 -10 -13 0
11 -10 -15 0
11 -10 -16 0
11 -11 -13 0
11 -11 -14 0
11 -11 -16 0
11 -12 -13 0
11 -12 -14 0
11 -12 -15 0
11 -9 -26 0
11 -9 -27 0
11 -9 -28 0
11 -10 -25 0
11 -10 -27 0
11 -10 -28 0
11 -11 -25 0
11 -11 -26 0
11 -11 -28 0
11 -12 -25 0
11 -12 -26 0
11 -12 -27 0
11 -13 -26 0
11 -13 -27 0
11 -13 -28 0
11 -14 -25 0
11 -14 -27 0
11 -14 -28 0
11 -15 -25 0
11 -15 -26 0
11 -15 -28 0
11 -16 -25 0
11 -16 -26 0
11 -16 -27 0
11 -13 -34 0
11 -13 -35 0
11 -13 -36 0
11 -14 -33 0
11 -14 -35 0
11 -14 -36 0
11 -15 -33 0
11 -15 -34 0
11 -15 -36 0
11 -16 -33 0
11 -16 -34 0
11 -16 -35 0
11 -17 -22 0
11 -17 -23 0
11 -17 -24 0
11 -18 -21 0
11 -18 -23 0
11 -18 -24 0
11 -19 -21 0
11 -19 -22 0
11 -19 -24 0
11 -20 -21 0
11 -20 -22 0
11 -20 -23 0
11 -17 -30 0
11 -17 -31 0
11 -17 -32 0
11 -18 -29 0
11 -18 -31 0
11 -18 -32 0
11 -19 -29 0
11 -19 -30 0
11 -19 -32 0
11 -20 -29 0
11 -20 -30 0
11 -20 -31 0
11 -17 -34 0
11 -17 -35 0
11 -17 -36 0
11 -18 -33 0
11 -18 -35 0
11 -18 -36 0
11 -19 -33 0
11 -19 -34 0
11 -19 -36 0
11 -20 -33 0
11 -20 -34 0
11 -20 -35 0
11 -21 -26 0
11 -21 -27 0
11 -21 -28 0
11 -22 -25 0
11 -22 -27 0
11 -22 -28 0
11 -23 -25 0
11 -23 -26 0
11 -23 -28 0
11 -24 -25 0
11 -24 -26 0
11 -24 -27 0
11 -21 -34 0
11 -21 -35 0
11 -21 -36 0
11 -22 -33 0
11 -22 -35 0
11 -22 -36 0
11 -23 -33 0
11 -23 -34 0
11 -23 -36 0
11 -24 -33 0
11 -24 -34 0
11 -24 -35 0
11 -25 -30 0
11 -25 -31 0
11 -25 -32 0
11 -26 -29 0
11 -26 -31 0
11 -26 -32 0
11 -27 -29 0
11 -27 -30 0
11 -27 -32 0
11 -28 -29 0
11 -28 -30 0
11 -28 -31 0
11 -25 -34 0
11 -25 -35 0
11 -25 -36 0
11 -26 -33 0
11 -26 -35 0
11 -26 -36 0
11 -27 -33 0
11 -27 -34 0
11 -27 -36 0
11 -28 -33 0
11 -28 -34 0
11 -28 -35 0
11 -29 -34 0
11 -29 -35 0
11 -29 -36 0
11 -30 -33 0
11 -30 -35 0
11 -30 -36 0
11 -31 -33 0
11 -31 -34 0
11 -31 -36 0
11 -32 -33 0
11 -32 -34 0
11 -32 -35 0
11 -1 -5 0
11 -1 -9 0
11 -1 -13 0
11 -1 -17 0
11 -1 -21 0
11 -1 -25 0
11 -1 -29 0
11 -1 -33 0
11 -2 -6 0
11 -2 -10 0
11 -2 -14 0
11 -2 -18 0
11 -2 -22 0
11 -2 -26 0
11 -2 -30 0
11 -2 -34 0
11 -3 -7 0
11 -3 -11 0
11 -3 -15 0
11 -3 -19 0
11 -3 -23 0
11 -3 -27 0
11 -3 -31 0
11 -3 -35 0
11 -4 -8 0
11 -4 -12 0
11 -4 -16 0
11 -4 -20 0
11 -4 -24 0
11 -4 -28 0
11 -4 -32 0
11 -4 -36 0
11 -5 -9 0
11 -5 -13 0
11 -5 -17 0
11 -5 -21 0
11 -5 -25 0
11 -5 -29 0
11 -5 -33 0
11 -6 -10 0
11 -6 -14 0
11 -6 -18 0
11 -6 -22 0
11 -6 -26 0
11 -6 -30 0
11 -6 -34 0
11 -7 -11 0
11 -7 -15 0
11 -7 -19 0
11 -7 -23 0
11 -7 -27 0
11 -7 -31 0
11 -7 -35 0
11 -8 -12 0
11 -8 -16 0
11 -8 -20 0
11 -8 -24 0
11 -8 -28 0
11 -8 -32 0
11 -8 -36 0
11 -9 -13 0
11 -9 -17 0
11 -9 -21 0
11 -9 -25 0
11 -9 -29 0
11 -9 -33 0
11 -10 -14 0
11 -10 -18 0
11 -10 -22 0
11 -10 -26 0
11 -10 -30 0
11 -10 -34 0
11 -11 -15 0
11 -11 -19 0
11 -11 -23 0
11 -11 -27 0
11 -11 -31 0
11 -11 -35 0
11 -12 -16 0
11 -12 -20 0
11 -12 -24 0
11 -12 -28 0
11 -12 -32 0
11 -12 -36 0
11 -13 -17 0
11 -13 -21 0
11 -13 -25 0
11 -13 -29 0
11 -13 -33 0
11 -14 -18 0
11 -14 -22 0
11 -14 -26 0
11 -14 -30 0
11 -14 -34 0
11 -15 -19 0
11 -15 -23 0
11 -15 -27 0
11 -15 -31 0
11 -15 -35 0
11 -16 -20 0
11 -16 -24 0
11 -16 -28 0
11 -16 -32 0
11 -16 -36 0
11 -17 -21 0
11 -17 -25 0
11 -17 -29 0
11 -17 -33 0
11 -18 -22 0
11 -18 -26 0
11 -18 -30 0
11 -18 -34 0
11 -19 -23 0
11 -19 -27 0
11 -19 -31 0
11 -19 -35 0
11 -20 -24 0
11 -20 -28 0
11 -20 -32 0
11 -20 -36 0
11 -21 -25 0
11 -21 -29 0
11 -21 -33 0
11 -22 -26 0
11 -22 -30 0
11 -22 -34 0
11 -23 -27 0
11 -23 -31 0
11 -23 -35 0
11 -24 -28 0
11 -24 -32 0
11 -24 -36 0
11 -25 -29 0
11 -25 -33 0
11 -26 -30 0
11 -26 -34 0
11 -27 -31 0
11 -27 -35 0
11 -28 -32 0
11 -28 -36 0
11 -29 -33 0
11 -30 -34 0
11 -31 -35 0
11 -32 -36 0
11 -1 -2 0
11 -1 -3 0
11 -1 -4 0
11 -2 -3 0
11 -2 -4 0
11 -3 -4 0
11 -5 -6 0
11 -5 -7 0
11 -5 -8 0
11 -6 -7 0
11 -6 -8 0
11 -7 -8 0
11 -9 -10 0
11 -9 -11 0
11 -9 -12 0
11 -10 -11 0
11 -10 -12 0
11 -11 -12 0
11 -13 -14 0
11 -13 -15 0
11 -13 -16 0
11 -14 -15 0
11 -14 -16 0
11 -15 -16 0
11 -17 -18 0
11 -17 -19 0
11 -17 -20 0
11 -18 -19 0
11 -18 -20 0
11 -19 -20 0
11 -21 -22 0
11 -21 -23 0
11 -21 -24 0
11 -22 -23 0
11 -22 -24 0
11 -23 -24 0
11 -25 -26 0
11 -25 -27 0
11 -25 -28 0
11 -26 -27 0
11 -26 -28 0
11 -27 -28 0
11 -29 -30 0
11 -29 -31 0
11 -29 -32 0
11 -30 -31 0
11 -30 -32 0
11 -31 -32 0
11 -33 -34 0
11 -33 -35 0
11 -33 -36 0
11 -34 -35 0
11 -34 -36 0
11 -35 -36 0
